Minimize
  928.0355596635293 x_s3_b10 + 147.5211849193193 x_s2_b10
   + 673.2802165517712 x_s1_b10 + 312.929704566377 x_s4_b10
   + 272.1327800908961 x_t8_b10 + 785.0676722423361 x_t6_b10
   + 600.6506888366981 x_t7_b10 + 88.670739254841 x_t4_b10
   + 342.7280262832323 x_t5_b10 + 530.8071683766149 x_t2_b10
   + 281.6136537883062 x_t3_b10 + 788.8005134379669 x_t1_b10
   + 909.2098217683309 x_s3_b11 + 380.5916446797013 x_s2_b11
   + 864.6567237927432 x_s1_b11 + 153.5008143300875 x_s4_b11
   + 280.9470590698539 x_t8_b11 + 805.4695835349712 x_t6_b11
   + 658.0321040800366 x_t7_b11 + 295.0423698386386 x_t4_b11
   + 458.530260724415 x_t5_b11 + 702.7846398435298 x_t2_b11
   + 509.8345319807202 x_t3_b11 + 910.4016970546572 x_t1_b11
   + 764.4932962426813 x_s3_b4 + 307.5914498161482 x_s2_b4
   + 341.5497767529647 x_s1_b4 + 505.5937104039171 x_s4_b4
   + 324.9711525658854 x_t8_b4 + 585.7313804125574 x_t6_b4
   + 383.7072451752769 x_t7_b4 + 374.5831015942924 x_t4_b4
   + 155.9246612951268 x_t5_b4 + 190.8042190309218 x_t2_b4
   + 172.7896119562747 x_t3_b4 + 470.5382556179678 x_t1_b4
   + 1078.482730506149 x_s3_b5 + 183.7457482501296 x_s2_b5
   + 514.4718165264255 x_s1_b5 + 630.3173803727769 x_s4_b5
   + 520.9906429102158 x_t8_b5 + 903.3029668942752 x_t6_b5
   + 701.0037446404976 x_t7_b5 + 279.0385278057494 x_t4_b5
   + 446.6122479287822 x_t5_b5 + 452.361857366423 x_t2_b5
   + 147.2455432262722 x_t3_b5 + 758.9178150498248 x_t1_b5
   + 1214.302783493474 x_s3_b6 + 216.3475213631994 x_s2_b6
   + 772.7871634544663 x_s1_b6 + 598.1481839811937 x_s4_b6
   + 572.8001396647874 x_t8_b6 + 1057.745243430572 x_t6_b6
   + 861.5393200545174 x_t7_b6 + 214.4906757880165 x_t4_b6
   + 591.9512226526776 x_t5_b6 + 685.2919086053767 x_t2_b6 + 360 x_t3_b6
   + 983.9524886903838 x_t1_b6 + 309.2329219213245 x_s3_b7
   + 795.6208267761723 x_s2_b7 + 529.3214996578167 x_s1_b7
   + 703.420215802759 x_s4_b7 + 539.3804316064868 x_t8_b7
   + 130.2161664310542 x_t6_b7 + 162.5 x_t7_b7 + 830.1280021779774 x_t4_b7
   + 422.7440123762843 x_t5_b7 + 425.5951714951663 x_t2_b7
   + 686.4264345142894 x_t3_b7 + 244.3486238962683 x_t1_b7
   + 701.6810172720934 x_s3_b1 + 704.8625752584684 x_s2_b1
   + 171.0263137648707 x_s1_b1 + 847.7359553540241 x_s4_b1
   + 651.4982732133677 x_t8_b1 + 521.9434835305448 x_t6_b1
   + 405.2159917870962 x_t7_b1 + 780.4045425290656 x_t4_b1
   + 450.5898911427108 x_t5_b1 + 217.0829334609241 x_t2_b1
   + 536.1436374704077 x_t3_b1 + 169.0044378115557 x_t1_b1
   + 527.8553305594252 x_s3_b2 + 605.0051652672066 x_s2_b2
   + 319.7068970166268 x_s1_b2 + 639.3013765040711 x_s4_b2
   + 446.8360997054737 x_t8_b2 + 338.9137058308501 x_t6_b2
   + 177.9395964927425 x_t7_b2 + 657.671080404179 x_t4_b2
   + 265.5772015817623 x_t5_b2 + 193.5523185084591 x_t2_b2
   + 472.1361032583719 x_t3_b2 + 191.3765920900464 x_t1_b2
   + 888.2707920448584 x_s3_b3 + 448.3999330954455 x_s2_b3
   + 163.1908392036759 x_s1_b3 + 737.9024325749306 x_s4_b3
   + 557.477578024444 x_t8_b3 + 699.5757643029095 x_t6_b3
   + 515.3215015890565 x_t7_b3 + 540.3355438984188 x_t4_b3
   + 371.9711010280234 x_t5_b3 + 169.3553955443995 x_t2_b3
   + 268.3863819197986 x_t3_b3 + 448.1141037726887 x_t1_b3
   + 282.9421318927247 x_s3_b8 + 722.0500328924583 x_s2_b8
   + 662.6179140349286 x_s1_b8 + 505.1546792815049 x_s4_b8
   + 382.6388636821932 x_t8_b8 + 171.6464389377187 x_t6_b8
   + 167.9657703224083 x_t7_b8 + 727.7748621654914 x_t4_b8
   + 363.9453942557867 x_t5_b8 + 510.0612708292995 x_t2_b8
   + 665.7045140300612 x_t3_b8 + 458.3939353874569 x_t1_b8
   + 490.0573945978164 x_s3_b9 + 513.3042470114581 x_s2_b9
   + 510.5389309347526 x_s1_b9 + 409.2141859711122 x_s4_b9
   + 229.4558781116753 x_t8_b9 + 331.5493930020081 x_t6_b9 + 150 x_t7_b9
   + 531.1132176852691 x_t4_b9 + 147.2455432262722 x_t5_b9
   + 338.7107910887989 x_t2_b9 + 449.0545623863541 x_t3_b9
   + 419.6575985252739 x_t1_b9 + 30 y_s3 + 60 y_s2 + 50 y_s1 + 30 y_s4
   + 80 y_t8 + 100 y_t6 + 70 y_t7 + 90 y_t4 + 80 y_t5 + 120 y_t2 + 110 y_t3
   + 100 y_t1
Subject To
 R0: x_s3_b10 + x_s2_b10 + x_s1_b10 + x_s4_b10 + x_t8_b10 + x_t6_b10
   + x_t7_b10 + x_t4_b10 + x_t5_b10 + x_t2_b10 + x_t3_b10 + x_t1_b10 = 1
 R1: x_s3_b11 + x_s2_b11 + x_s1_b11 + x_s4_b11 + x_t8_b11 + x_t6_b11
   + x_t7_b11 + x_t4_b11 + x_t5_b11 + x_t2_b11 + x_t3_b11 + x_t1_b11 = 1
 R2: x_s3_b4 + x_s2_b4 + x_s1_b4 + x_s4_b4 + x_t8_b4 + x_t6_b4 + x_t7_b4
   + x_t4_b4 + x_t5_b4 + x_t2_b4 + x_t3_b4 + x_t1_b4 = 1
 R3: x_s3_b5 + x_s2_b5 + x_s1_b5 + x_s4_b5 + x_t8_b5 + x_t6_b5 + x_t7_b5
   + x_t4_b5 + x_t5_b5 + x_t2_b5 + x_t3_b5 + x_t1_b5 = 1
 R4: x_s3_b6 + x_s2_b6 + x_s1_b6 + x_s4_b6 + x_t8_b6 + x_t6_b6 + x_t7_b6
   + x_t4_b6 + x_t5_b6 + x_t2_b6 + x_t3_b6 + x_t1_b6 = 1
 R5: x_s3_b7 + x_s2_b7 + x_s1_b7 + x_s4_b7 + x_t8_b7 + x_t6_b7 + x_t7_b7
   + x_t4_b7 + x_t5_b7 + x_t2_b7 + x_t3_b7 + x_t1_b7 = 1
 R6: x_s3_b1 + x_s2_b1 + x_s1_b1 + x_s4_b1 + x_t8_b1 + x_t6_b1 + x_t7_b1
   + x_t4_b1 + x_t5_b1 + x_t2_b1 + x_t3_b1 + x_t1_b1 = 1
 R7: x_s3_b2 + x_s2_b2 + x_s1_b2 + x_s4_b2 + x_t8_b2 + x_t6_b2 + x_t7_b2
   + x_t4_b2 + x_t5_b2 + x_t2_b2 + x_t3_b2 + x_t1_b2 = 1
 R8: x_s3_b3 + x_s2_b3 + x_s1_b3 + x_s4_b3 + x_t8_b3 + x_t6_b3 + x_t7_b3
   + x_t4_b3 + x_t5_b3 + x_t2_b3 + x_t3_b3 + x_t1_b3 = 1
 R9: x_s3_b8 + x_s2_b8 + x_s1_b8 + x_s4_b8 + x_t8_b8 + x_t6_b8 + x_t7_b8
   + x_t4_b8 + x_t5_b8 + x_t2_b8 + x_t3_b8 + x_t1_b8 = 1
 R10: x_s3_b9 + x_s2_b9 + x_s1_b9 + x_s4_b9 + x_t8_b9 + x_t6_b9 + x_t7_b9
   + x_t4_b9 + x_t5_b9 + x_t2_b9 + x_t3_b9 + x_t1_b9 = 1
 R11: x_s1_b10 + x_s1_b11 + x_s1_b4 + x_s1_b5 + x_s1_b6 + x_s1_b7 + x_s1_b1
   + x_s1_b2 + x_s1_b3 + x_s1_b8 + x_s1_b9 <= 3
 R12: x_s2_b10 + x_s2_b11 + x_s2_b4 + x_s2_b5 + x_s2_b6 + x_s2_b7 + x_s2_b1
   + x_s2_b2 + x_s2_b3 + x_s2_b8 + x_s2_b9 <= 3
 R13: x_s3_b10 + x_s3_b11 + x_s3_b4 + x_s3_b5 + x_s3_b6 + x_s3_b7 + x_s3_b1
   + x_s3_b2 + x_s3_b3 + x_s3_b8 + x_s3_b9 <= 3
 R14: x_s4_b10 + x_s4_b11 + x_s4_b4 + x_s4_b5 + x_s4_b6 + x_s4_b7 + x_s4_b1
   + x_s4_b2 + x_s4_b3 + x_s4_b8 + x_s4_b9 <= 3
 R15: x_t1_b10 + x_t1_b11 + x_t1_b4 + x_t1_b5 + x_t1_b6 + x_t1_b7 + x_t1_b1
   + x_t1_b2 + x_t1_b3 + x_t1_b8 + x_t1_b9 <= 3
 R16: x_t2_b10 + x_t2_b11 + x_t2_b4 + x_t2_b5 + x_t2_b6 + x_t2_b7 + x_t2_b1
   + x_t2_b2 + x_t2_b3 + x_t2_b8 + x_t2_b9 <= 3
 R17: x_t3_b10 + x_t3_b11 + x_t3_b4 + x_t3_b5 + x_t3_b6 + x_t3_b7 + x_t3_b1
   + x_t3_b2 + x_t3_b3 + x_t3_b8 + x_t3_b9 <= 3
 R18: x_t4_b10 + x_t4_b11 + x_t4_b4 + x_t4_b5 + x_t4_b6 + x_t4_b7 + x_t4_b1
   + x_t4_b2 + x_t4_b3 + x_t4_b8 + x_t4_b9 <= 3
 R19: x_t5_b10 + x_t5_b11 + x_t5_b4 + x_t5_b5 + x_t5_b6 + x_t5_b7 + x_t5_b1
   + x_t5_b2 + x_t5_b3 + x_t5_b8 + x_t5_b9 <= 3
 R20: x_t6_b10 + x_t6_b11 + x_t6_b4 + x_t6_b5 + x_t6_b6 + x_t6_b7 + x_t6_b1
   + x_t6_b2 + x_t6_b3 + x_t6_b8 + x_t6_b9 <= 3
 R21: x_t7_b10 + x_t7_b11 + x_t7_b4 + x_t7_b5 + x_t7_b6 + x_t7_b7 + x_t7_b1
   + x_t7_b2 + x_t7_b3 + x_t7_b8 + x_t7_b9 <= 3
 R22: x_t8_b10 + x_t8_b11 + x_t8_b4 + x_t8_b5 + x_t8_b6 + x_t8_b7 + x_t8_b1
   + x_t8_b2 + x_t8_b3 + x_t8_b8 + x_t8_b9 <= 3
 R23: - x_s4_b10 - y_s4 <= -1
 R24: x_s3_b10 <= 0
 R25: x_s2_b10 <= 0
 R26: x_s1_b10 <= 0
 R27: - x_s4_b11 - y_s4 <= -1
 R28: x_s3_b11 <= 0
 R29: x_s2_b11 <= 0
 R30: x_s1_b11 <= 0
 R31: - x_s2_b4 - y_s2 <= -1
 R32: x_s3_b4 <= 0
 R33: x_s1_b4 <= 0
 R34: x_s4_b4 <= 0
 R35: - x_s2_b5 - y_s2 <= -1
 R36: x_s3_b5 <= 0
 R37: x_s1_b5 <= 0
 R38: x_s4_b5 <= 0
 R39: - x_s2_b6 - y_s2 <= -1
 R40: x_s3_b6 <= 0
 R41: x_s1_b6 <= 0
 R42: x_s4_b6 <= 0
 R43: - x_s3_b7 - y_s3 <= -1
 R44: x_s2_b7 <= 0
 R45: x_s1_b7 <= 0
 R46: x_s4_b7 <= 0
 R47: - x_s1_b1 - y_s1 <= -1
 R48: x_s3_b1 <= 0
 R49: x_s2_b1 <= 0
 R50: x_s4_b1 <= 0
 R51: - x_s1_b2 - y_s1 <= -1
 R52: x_s3_b2 <= 0
 R53: x_s2_b2 <= 0
 R54: x_s4_b2 <= 0
 R55: - x_s1_b3 - y_s1 <= -1
 R56: x_s3_b3 <= 0
 R57: x_s2_b3 <= 0
 R58: x_s4_b3 <= 0
 R59: - x_s3_b8 - y_s3 <= -1
 R60: x_s2_b8 <= 0
 R61: x_s1_b8 <= 0
 R62: x_s4_b8 <= 0
 R63: - x_s3_b9 - y_s3 <= -1
 R64: x_s2_b9 <= 0
 R65: x_s1_b9 <= 0
 R66: x_s4_b9 <= 0
 R67: x_t8_b10 - y_t8 <= 0
 R68: x_t8_b11 - y_t8 <= 0
 R69: x_t8_b4 - y_t8 <= 0
 R70: x_t8_b5 - y_t8 <= 0
 R71: x_t8_b6 - y_t8 <= 0
 R72: x_t8_b7 - y_t8 <= 0
 R73: x_t8_b1 - y_t8 <= 0
 R74: x_t8_b2 - y_t8 <= 0
 R75: x_t8_b3 - y_t8 <= 0
 R76: x_t8_b8 - y_t8 <= 0
 R77: x_t8_b9 - y_t8 <= 0
 R78: x_t6_b10 - y_t6 <= 0
 R79: x_t6_b11 - y_t6 <= 0
 R80: x_t6_b4 - y_t6 <= 0
 R81: x_t6_b5 - y_t6 <= 0
 R82: x_t6_b6 - y_t6 <= 0
 R83: x_t6_b7 - y_t6 <= 0
 R84: x_t6_b1 - y_t6 <= 0
 R85: x_t6_b2 - y_t6 <= 0
 R86: x_t6_b3 - y_t6 <= 0
 R87: x_t6_b8 - y_t6 <= 0
 R88: x_t6_b9 - y_t6 <= 0
 R89: x_t7_b10 - y_t7 <= 0
 R90: x_t7_b11 - y_t7 <= 0
 R91: x_t7_b4 - y_t7 <= 0
 R92: x_t7_b5 - y_t7 <= 0
 R93: x_t7_b6 - y_t7 <= 0
 R94: x_t7_b7 - y_t7 <= 0
 R95: x_t7_b1 - y_t7 <= 0
 R96: x_t7_b2 - y_t7 <= 0
 R97: x_t7_b3 - y_t7 <= 0
 R98: x_t7_b8 - y_t7 <= 0
 R99: x_t7_b9 - y_t7 <= 0
 R100: x_t4_b10 - y_t4 <= 0
 R101: x_t4_b11 - y_t4 <= 0
 R102: x_t4_b4 - y_t4 <= 0
 R103: x_t4_b5 - y_t4 <= 0
 R104: x_t4_b6 - y_t4 <= 0
 R105: x_t4_b7 - y_t4 <= 0
 R106: x_t4_b1 - y_t4 <= 0
 R107: x_t4_b2 - y_t4 <= 0
 R108: x_t4_b3 - y_t4 <= 0
 R109: x_t4_b8 - y_t4 <= 0
 R110: x_t4_b9 - y_t4 <= 0
 R111: x_t5_b10 - y_t5 <= 0
 R112: x_t5_b11 - y_t5 <= 0
 R113: x_t5_b4 - y_t5 <= 0
 R114: x_t5_b5 - y_t5 <= 0
 R115: x_t5_b6 - y_t5 <= 0
 R116: x_t5_b7 - y_t5 <= 0
 R117: x_t5_b1 - y_t5 <= 0
 R118: x_t5_b2 - y_t5 <= 0
 R119: x_t5_b3 - y_t5 <= 0
 R120: x_t5_b8 - y_t5 <= 0
 R121: x_t5_b9 - y_t5 <= 0
 R122: x_t2_b10 - y_t2 <= 0
 R123: x_t2_b11 - y_t2 <= 0
 R124: x_t2_b4 - y_t2 <= 0
 R125: x_t2_b5 - y_t2 <= 0
 R126: x_t2_b6 - y_t2 <= 0
 R127: x_t2_b7 - y_t2 <= 0
 R128: x_t2_b1 - y_t2 <= 0
 R129: x_t2_b2 - y_t2 <= 0
 R130: x_t2_b3 - y_t2 <= 0
 R131: x_t2_b8 - y_t2 <= 0
 R132: x_t2_b9 - y_t2 <= 0
 R133: x_t3_b10 - y_t3 <= 0
 R134: x_t3_b11 - y_t3 <= 0
 R135: x_t3_b4 - y_t3 <= 0
 R136: x_t3_b5 - y_t3 <= 0
 R137: x_t3_b6 - y_t3 <= 0
 R138: x_t3_b7 - y_t3 <= 0
 R139: x_t3_b1 - y_t3 <= 0
 R140: x_t3_b2 - y_t3 <= 0
 R141: x_t3_b3 - y_t3 <= 0
 R142: x_t3_b8 - y_t3 <= 0
 R143: x_t3_b9 - y_t3 <= 0
 R144: x_t1_b10 - y_t1 <= 0
 R145: x_t1_b11 - y_t1 <= 0
 R146: x_t1_b4 - y_t1 <= 0
 R147: x_t1_b5 - y_t1 <= 0
 R148: x_t1_b6 - y_t1 <= 0
 R149: x_t1_b7 - y_t1 <= 0
 R150: x_t1_b1 - y_t1 <= 0
 R151: x_t1_b2 - y_t1 <= 0
 R152: x_t1_b3 - y_t1 <= 0
 R153: x_t1_b8 - y_t1 <= 0
 R154: x_t1_b9 - y_t1 <= 0
Bounds
Binaries
 x_s3_b10 x_s2_b10 x_s1_b10 x_s4_b10 x_t8_b10 x_t6_b10 x_t7_b10 x_t4_b10
 x_t5_b10 x_t2_b10 x_t3_b10 x_t1_b10 x_s3_b11 x_s2_b11 x_s1_b11 x_s4_b11
 x_t8_b11 x_t6_b11 x_t7_b11 x_t4_b11 x_t5_b11 x_t2_b11 x_t3_b11 x_t1_b11
 x_s3_b4 x_s2_b4 x_s1_b4 x_s4_b4 x_t8_b4 x_t6_b4 x_t7_b4 x_t4_b4 x_t5_b4
 x_t2_b4 x_t3_b4 x_t1_b4 x_s3_b5 x_s2_b5 x_s1_b5 x_s4_b5 x_t8_b5 x_t6_b5
 x_t7_b5 x_t4_b5 x_t5_b5 x_t2_b5 x_t3_b5 x_t1_b5 x_s3_b6 x_s2_b6 x_s1_b6
 x_s4_b6 x_t8_b6 x_t6_b6 x_t7_b6 x_t4_b6 x_t5_b6 x_t2_b6 x_t3_b6 x_t1_b6
 x_s3_b7 x_s2_b7 x_s1_b7 x_s4_b7 x_t8_b7 x_t6_b7 x_t7_b7 x_t4_b7 x_t5_b7
 x_t2_b7 x_t3_b7 x_t1_b7 x_s3_b1 x_s2_b1 x_s1_b1 x_s4_b1 x_t8_b1 x_t6_b1
 x_t7_b1 x_t4_b1 x_t5_b1 x_t2_b1 x_t3_b1 x_t1_b1 x_s3_b2 x_s2_b2 x_s1_b2
 x_s4_b2 x_t8_b2 x_t6_b2 x_t7_b2 x_t4_b2 x_t5_b2 x_t2_b2 x_t3_b2 x_t1_b2
 x_s3_b3 x_s2_b3 x_s1_b3 x_s4_b3 x_t8_b3 x_t6_b3 x_t7_b3 x_t4_b3 x_t5_b3
 x_t2_b3 x_t3_b3 x_t1_b3 x_s3_b8 x_s2_b8 x_s1_b8 x_s4_b8 x_t8_b8 x_t6_b8
 x_t7_b8 x_t4_b8 x_t5_b8 x_t2_b8 x_t3_b8 x_t1_b8 x_s3_b9 x_s2_b9 x_s1_b9
 x_s4_b9 x_t8_b9 x_t6_b9 x_t7_b9 x_t4_b9 x_t5_b9 x_t2_b9 x_t3_b9 x_t1_b9
 y_s3 y_s2 y_s1 y_s4 y_t8 y_t6 y_t7 y_t4 y_t5 y_t2 y_t3 y_t1
End
